30 3000
1 483
2 468
3 453
4 451
5 445
6 443
7 442
8 429
9 426
10 417
11 412
12 397
13 391
14 382
15 380
16 377
17 376
18 373
19 369
20 369
21 364
22 363
23 359
24 359
25 351
26 343
27 337
28 332
29 319
30 319
